experiments/filesystem/filesystem_fileInDir.als.smt2
(set-logic AUFLIA)
(set-option :macro-finder true)
;; sorts
(declare-sort Atom)
(declare-sort Rel1)
(declare-sort Rel2)
;; --end sorts

;; functions
(declare-fun subset_1 (Rel1 Rel1) Bool)
(declare-fun one_1 (Rel1) Bool)
(declare-fun contents () Rel2)
(declare-fun in_1 (Atom Rel1) Bool)
(declare-fun in_2 (Atom Atom Rel2) Bool)
(declare-fun prod_1x1 (Rel1 Rel1) Rel2)
(declare-fun subset_2 (Rel2 Rel2) Bool)
(declare-fun join_1x2 (Rel1 Rel2) Rel1)
(declare-fun a2r_1 (Atom) Rel1)
(declare-fun join_2x2 (Rel2 Rel2) Rel2)
(declare-fun a2r_2 (Atom Atom) Rel2)
(declare-fun no_1 (Rel1) Bool)
(declare-fun join_2x1 (Rel2 Rel1) Rel1)
(declare-fun disjoint_1 (Rel1 Rel1) Bool)
(declare-fun trans (Rel2) Bool)
(declare-fun transClos (Rel2) Rel2)
(declare-fun iden () Rel2)
(declare-fun union_2 (Rel2 Rel2) Rel2)
(declare-fun File () Rel1)
(declare-fun Root () Rel1)
(declare-fun Dir () Rel1)
(declare-fun Object () Rel1)
;; --end functions

;; axioms
(assert 
 (! 
  ; subset axiom for Rel1
(forall ((x Rel1)(y Rel1)) (= (subset_1 x y) (forall ((a0 Atom)) (=> (in_1 a0 x) (in_1 a0 y))))) 
 :named ax0 
 ) 
 )
(assert 
 (! 
  (forall ((X Rel1)) (= (one_1 X) (and (exists ((a0 Atom)) (in_1 a0 X)) (forall ((a0 Atom)(b0 Atom)) (=> (and (in_1 a0 X) (in_1 b0 X)) (= a0 b0)))))) 
 :named ax1 
 ) 
 )
(assert 
 (! 
  (forall ((y0 Atom)(x0 Atom)(A Rel1)(B Rel1)) (= (in_2 x0 y0 (prod_1x1 A B)) (and (in_1 x0 A) (in_1 y0 B)))) 
 :named ax2 
 ) 
 )
(assert 
 (! 
  ; subset axiom for Rel2
(forall ((x Rel2)(y Rel2)) (= (subset_2 x y) (forall ((a0 Atom)(a1 Atom)) (=> (in_2 a0 a1 x) (in_2 a0 a1 y))))) 
 :named ax3 
 ) 
 )
(assert 
 (! 
  ; axiom for join_1x2
(forall ((A Rel1)(B Rel2)(y0 Atom)) (= (in_1 y0 (join_1x2 A B)) (exists ((x Atom)) (and (in_1 x A) (in_2 x y0 B))))) 
 :named ax4 
 ) 
 )
(assert 
 (! 
  ; axiom for the conversion function Atom -> Relation
(forall ((x0 Atom)) (and (in_1 x0 (a2r_1 x0)) (forall ((y0 Atom)) (=> (in_1 y0 (a2r_1 x0)) (= x0 y0))))) 
 :named ax5 
 ) 
 )
(assert 
 (! 
  ; axiom for join_2x2
(forall ((A Rel2)(B Rel2)(y0 Atom)(y1 Atom)) (= (in_2 y0 y1 (join_2x2 A B)) (exists ((x Atom)) (and (in_2 y0 x A) (in_2 x y1 B))))) 
 :named ax6 
 ) 
 )
(assert 
 (! 
  ; axiom for the conversion function Atom -> Relation
(forall ((x0 Atom)(x1 Atom)) (and (in_2 x0 x1 (a2r_2 x0 x1)) (forall ((y0 Atom)(y1 Atom)) (=> (in_2 y0 y1 (a2r_2 x0 x1)) (and (= x0 y0) (= x1 y1)))))) 
 :named ax7 
 ) 
 )
(assert 
 (! 
  ; axiom for 'the expression is empty'
(forall ((a0 Atom)(R Rel1)) (=> (no_1 R) (not (in_1 a0 R)))) 
 :named ax8 
 ) 
 )
(assert 
 (! 
  ; axiom for join_2x1
(forall ((A Rel2)(B Rel1)(y0 Atom)) (= (in_1 y0 (join_2x1 A B)) (exists ((x Atom)) (and (in_2 y0 x A) (in_1 x B))))) 
 :named ax9 
 ) 
 )
(assert 
 (! 
  ; (forall ((A Rel1)(B Rel1)) (= (disjoint_1 A B) (forall ((a0 Atom)) (=> (in_1 a0 A) (not (in_1 a0 B)))))); alternative
(forall ((A Rel1)(B Rel1)) (= (disjoint_1 A B) (forall ((a0 Atom)) (not (and (in_1 a0 A) (in_1 a0 B)))))) 
 :named ax10 
 ) 
 )
(assert 
 (! 
  ; this axiom defines transitivity
(forall ((r Rel2)) (= (trans r) (forall ((a1 Atom)(a2 Atom)(a3 Atom)) (=> (and (in_2 a1 a2 r) (in_2 a2 a3 r)) (in_2 a1 a3 r))))) 
 :named ax11 
 ) 
 )
(assert 
 (! 
  ; this axiom satisfies transitivity for transclos
(forall ((r1 Rel2)) (trans (transClos r1))) 
 :named ax12 
 ) 
 )
(assert 
 (! 
  ; this axioms satisfies that tcl is extensive
(forall ((r1 Rel2)) (subset_2 r1 (transClos r1))) 
 :named ax13 
 ) 
 )
(assert 
 (! 
  ; this axiom satisfies that transclos is increasing
(forall ((r1 Rel2)(r2 Rel2)) (=> (subset_2 r1 r2) (subset_2 (transClos r1) r2))) 
 :named ax14 
 ) 
 )
(assert 
 (! 
  ; this axiom satisfies that tcl should be idempotent
(forall ((r1 Rel2)) (= (transClos (transClos r1)) (transClos r1))) 
 :named ax15 
 ) 
 )
(assert 
 (! 
  (forall ((a0 Atom)) (in_2 a0 a0 iden)) 
 :named ax16 
 ) 
 )
(assert 
 (! 
  ; axiom for union of Rel2
(forall ((x0 Atom)(x1 Atom)(A Rel2)(B Rel2)) (= (in_2 x0 x1 (union_2 A B)) (or (in_2 x0 x1 A) (in_2 x0 x1 B)))) 
 :named ax17 
 ) 
 )
;; --end axioms

;; assertions
(assert 
 (! 
  (subset_1 File Object) 
 :named a0 
 ) 
 )
(assert 
 (! 
  (subset_1 Root Dir) 
 :named a1 
 ) 
 )
(assert 
 (! 
  (one_1 Root) 
 :named a2 
 ) 
 )
(assert 
 (! 
  (subset_1 Dir Object) 
 :named a3 
 ) 
 )
(assert 
 (! 
  (subset_2 contents (prod_1x1 Dir Object)) 
 :named a4 
 ) 
 )
(assert 
 (! 
  (forall ((this Atom)) (=> (in_1 this Object) (or (in_1 this Dir) (in_1 this File)))) 
 :named a5 
 ) 
 )
(assert 
 (! 
  (disjoint_1 Dir File) 
 :named a6 
 ) 
 )
(assert 
 (! 
  (subset_1 Object (join_1x2 Root (union_2 (transClos contents) iden))) 
 :named a7 
 ) 
 )
;; --end assertions

;; command
;; --end command

;; lemmas
(assert
 (! 
  ; 1. lemma for join_1x2. direction: join to in
(forall ((a1 Atom)(a0 Atom)(r Rel2)) (=> (in_1 a0 (join_1x2 ; (swapped)
(a2r_1 a1) r)) (in_2 a1 a0 r))) 
 :named l0 
 ) 
 )
(assert
 (! 
  ; 2. lemma for join_1x2. direction: in to join
(forall ((a1 Atom)(a0 Atom)(r Rel2)) (=> (in_2 a1 a0 r) (in_1 a0 (join_1x2 ; (swapped)
(a2r_1 a1) r)))) 
 :named l1 
 ) 
 )
(assert
 (! 
  ; 1. lemma for join_2x2. direction: join to in
(forall ((a2 Atom)(a1 Atom)(a0 Atom)(r Rel2)) (=> (in_2 a2 a0 (join_2x2 ; (swapped)
(a2r_2 a2 a1) r)) (in_2 a1 a0 r))) 
 :named l2 
 ) 
 )
(assert
 (! 
  ; 2. lemma for join_2x2. direction: in to join
(forall ((a2 Atom)(a1 Atom)(a0 Atom)(r Rel2)) (=> (in_2 a1 a0 r) (in_2 a2 a0 (join_2x2 ; (swapped)
(a2r_2 a2 a1) r)))) 
 :named l3 
 ) 
 )
(assert
 (! 
  ; lemma for step 21 of the com-theorem1 for join_1x2: R=(i.qi) S=iids
(forall ((R Rel2)(S Rel2)(x Atom)) (=> (no_1 (join_1x2 (a2r_1 x) R)) (no_1 (join_1x2 (a2r_1 x) (join_2x2 R S))))) 
 :named l4 
 ) 
 )
(assert
 (! 
  ; 1. lemma for join_2x1. direction: join to in
(forall ((a0 Atom)(a1 Atom)(r Rel2)) (=> (in_1 a0 (join_2x1 r (a2r_1 a1))) (in_2 a0 a1 r))) 
 :named l5 
 ) 
 )
(assert
 (! 
  ; 2. lemma for join_2x1. direction: in to join
(forall ((a0 Atom)(a1 Atom)(r Rel2)) (=> (in_2 a0 a1 r) (in_1 a0 (join_2x1 r (a2r_1 a1))))) 
 :named l6 
 ) 
 )
(assert
 (! 
  ; lemma about subset 2 and product 1x1 , using join
(forall ((R Rel2)(A Rel1)(B Rel1)) (=> (subset_2 R (prod_1x1 A B)) (forall ((a0 Atom)) (=> (in_1 a0 A) (= (not (in_1 a0 (join_2x1 R B))) (no_1 (join_1x2 (a2r_1 a0) R))))))) 
 :named l7 
 ) 
 )
(assert
 (! 
  ; lemma 1 for transClos about the second-last 'middle element'
(forall ((a1 Atom)(a3 Atom)(R Rel2)) (=> (in_2 a1 a3 (transClos R)) (forall ((a2 Atom)) (or (not (in_2 a1 a2 R)) (and (in_2 a1 a2 R) (in_2 a2 a3 (transClos R))))))) 
 :named l8 
 ) 
 )
(assert
 (! 
  ; lemma 1 for transClos about the second 'middle element'
(forall ((a1 Atom)(a3 Atom)(R Rel2)) (=> (in_2 a1 a3 (transClos R)) (forall ((a2 Atom)) (or (not (in_2 a2 a3 R)) (and (in_2 a2 a3 R) (in_2 a1 a2 (transClos R))))))) 
 :named l9 
 ) 
 )
;; --end lemmas

;; -- key stuff for debugging --
;\problem {(
;
;)-> (
;
;;\predicates {

;;}

;; -- END key stuff --
(check-sat)
